c FILE /home/rafael/Documents/HappySet/MIHS/inputs/happygen/output/graph_d_regular_k4_p0.4_v100_20241127_084031.txt
c SOURCE This is a d-regular graph formed for the happy graph colouring problem.
c DESCRIPTION It was generated using the problem generator of Rhyd Lewis
c
c GRAPH STATS
c Seed                             = 817528124
c Number of Nodes                  = 100
c Number of colours k              = 4
c Number of pre-assignments        = 40
c Degree of all vertices           = 6
c Density                          = 0.0606061
c 
c The degrees of nodes 1 to 100, respectively, are as follows 
c [6, 6, 6, 6, 6, 6, 6, 6, 6, 6, 6, 6, 6, 6, 6, 6, 6, 6, 6, 6, 6, 6, 6, 6, 6, 6, 
c  6, 6, 6, 6, 6, 6, 6, 6, 6, 6, 6, 6, 6, 6, 6, 6, 6, 6, 6, 6, 6, 6, 6, 6, 6, 
c  6, 6, 6, 6, 6, 6, 6, 6, 6, 6, 6, 6, 6, 6, 6, 6, 6, 6, 6, 6, 6, 6, 6, 6, 6, 
c  6, 6, 6, 6, 6, 6, 6, 6, 6, 6, 6, 6, 6, 6, 6, 6, 6, 6, 6, 6, 6, 6, 6, 6] 
c  
p edge 100 300 4
e 1 2
e 1 7
e 1 21
e 1 64
e 1 88
e 1 95
e 2 34
e 2 82
e 2 83
e 2 85
e 2 89
e 3 11
e 3 15
e 3 23
e 3 29
e 3 36
e 3 72
e 4 10
e 4 15
e 4 24
e 4 61
e 4 74
e 4 93
e 5 11
e 5 22
e 5 45
e 5 54
e 5 72
e 5 83
e 6 18
e 6 25
e 6 65
e 6 66
e 6 73
e 6 87
e 7 11
e 7 26
e 7 31
e 7 74
e 7 91
e 8 9
e 8 10
e 8 60
e 8 87
e 8 89
e 8 90
e 9 12
e 9 26
e 9 50
e 9 78
e 9 91
e 10 42
e 10 48
e 10 61
e 10 66
e 11 17
e 11 53
e 11 67
e 12 18
e 12 19
e 12 20
e 12 31
e 12 83
e 13 25
e 13 29
e 13 51
e 13 62
e 13 71
e 13 82
e 14 40
e 14 46
e 14 47
e 14 71
e 14 86
e 14 91
e 15 34
e 15 42
e 15 78
e 15 94
e 16 21
e 16 34
e 16 48
e 16 69
e 16 77
e 16 87
e 17 27
e 17 64
e 17 73
e 17 77
e 17 85
e 18 19
e 18 55
e 18 70
e 18 94
e 19 47
e 19 52
e 19 79
e 19 92
e 20 38
e 20 55
e 20 70
e 20 95
e 20 98
e 21 37
e 21 40
e 21 47
e 21 75
e 22 30
e 22 45
e 22 73
e 22 80
e 22 93
e 23 58
e 23 61
e 23 66
e 23 71
e 23 77
e 24 27
e 24 41
e 24 48
e 24 63
e 24 80
e 25 53
e 25 58
e 25 66
e 25 95
e 26 29
e 26 49
e 26 79
e 26 88
e 27 31
e 27 51
e 27 63
e 27 73
e 28 37
e 28 39
e 28 59
e 28 86
e 28 90
e 28 92
e 29 31
e 29 64
e 29 98
e 30 37
e 30 50
e 30 57
e 30 81
e 30 96
e 31 41
e 31 79
e 32 38
e 32 56
e 32 60
e 32 66
e 32 72
e 32 80
e 33 53
e 33 56
e 33 65
e 33 69
e 33 88
e 33 91
e 34 36
e 34 42
e 34 78
e 35 51
e 35 61
e 35 63
e 35 72
e 35 85
e 35 100
e 36 56
e 36 58
e 36 68
e 36 70
e 37 49
e 37 84
e 37 89
e 38 57
e 38 67
e 38 89
e 38 96
e 39 40
e 39 48
e 39 54
e 39 72
e 39 80
e 40 62
e 40 73
e 40 97
e 41 74
e 41 91
e 41 93
e 41 97
e 42 43
e 42 65
e 42 86
e 43 46
e 43 50
e 43 69
e 43 85
e 43 86
e 44 48
e 44 69
e 44 81
e 44 89
e 44 92
e 44 98
e 45 54
e 45 61
e 45 94
e 45 95
e 46 50
e 46 52
e 46 88
e 46 96
e 47 53
e 47 84
e 47 85
e 48 87
e 49 57
e 49 58
e 49 82
e 49 83
e 50 69
e 50 82
e 51 71
e 51 76
e 51 78
e 52 55
e 52 64
e 52 75
e 52 90
e 53 57
e 53 66
e 54 62
e 54 67
e 54 98
e 55 56
e 55 63
e 55 90
e 56 79
e 56 91
e 57 81
e 57 99
e 58 63
e 58 67
e 59 60
e 59 67
e 59 77
e 59 80
e 59 100
e 60 62
e 60 93
e 60 100
e 61 62
e 62 95
e 63 99
e 64 69
e 64 74
e 65 70
e 65 94
e 65 97
e 67 68
e 68 76
e 68 84
e 68 88
e 68 99
e 70 72
e 70 76
e 71 83
e 71 96
e 73 84
e 74 81
e 74 100
e 75 79
e 75 87
e 75 95
e 75 100
e 76 78
e 76 92
e 76 94
e 77 81
e 77 90
e 78 97
e 79 88
e 80 94
e 81 86
e 82 87
e 82 99
e 83 84
e 84 99
e 85 100
e 86 97
e 89 93
e 90 92
e 92 96
e 93 97
e 96 98
e 98 99
n 4 3
n 6 3
n 8 2
n 9 2
n 11 1
n 14 2
n 15 3
n 18 3
n 20 3
n 21 2
n 22 1
n 25 3
n 27 4
n 28 2
n 29 3
n 35 2
n 36 4
n 37 2
n 41 2
n 46 2
n 48 4
n 50 2
n 52 2
n 54 3
n 56 4
n 57 2
n 62 3
n 65 3
n 68 4
n 71 2
n 72 2
n 77 4
n 79 4
n 80 1
n 85 2
n 86 2
n 92 2
n 95 3
n 98 3
n 100 2
